(set-info :smt-lib-version 2.6)
(set-logic QF_NIA)
(set-info :source |
Generated by: Cristina Borralleras, Daniel Larraz, Albert Oliveras, Enric Rodriguez-Carbonell, Albert Rubio
Generated on: 2017-04-27
Generator: VeryMax
Application: Termination proving
Target solver: barcelogic
|)
(set-info :license "https://creativecommons.org/licenses/by/4.0/")
(set-info :category "industrial")
(set-info :status sat)
(declare-fun global_invc1_0 () Int)
(declare-fun lam0n0 () Int)
(declare-fun lam0n1 () Int)
(declare-fun lam0n3 () Int)
(declare-fun lam0n2 () Int)
(declare-fun global_invc1_1 () Int)
(declare-fun lam1n0 () Int)
(declare-fun lam1n1 () Int)
(declare-fun lam1n2 () Int)
(declare-fun lam1n4 () Int)
(declare-fun lam1n3 () Int)
(declare-fun lam2n0 () Int)
(declare-fun lam2n1 () Int)
(declare-fun lam2n2 () Int)
(declare-fun lam2n4 () Int)
(declare-fun lam2n5 () Int)
(declare-fun lam2n6 () Int)
(declare-fun lam2n7 () Int)
(declare-fun lam2n8 () Int)
(declare-fun lam2n9 () Int)
(declare-fun lam2n10 () Int)
(declare-fun lam2n11 () Int)
(declare-fun lam2n12 () Int)
(declare-fun lam2n13 () Int)
(declare-fun lam2n14 () Int)
(declare-fun lam2n15 () Int)
(declare-fun lam2n16 () Int)
(declare-fun lam2n17 () Int)
(declare-fun lam2n18 () Int)
(declare-fun lam2n3 () Int)
(declare-fun term_invc1_0 () Int)
(declare-fun lam3n0 () Int)
(declare-fun lam3n1 () Int)
(declare-fun lam3n2 () Int)
(declare-fun lam3n4 () Int)
(declare-fun lam3n5 () Int)
(declare-fun lam3n6 () Int)
(declare-fun lam3n7 () Int)
(declare-fun lam3n8 () Int)
(declare-fun lam3n9 () Int)
(declare-fun lam3n10 () Int)
(declare-fun lam3n11 () Int)
(declare-fun lam3n12 () Int)
(declare-fun lam3n13 () Int)
(declare-fun lam3n14 () Int)
(declare-fun lam3n15 () Int)
(declare-fun lam3n16 () Int)
(declare-fun lam3n17 () Int)
(declare-fun lam3n18 () Int)
(declare-fun lam3n19 () Int)
(declare-fun lam3n20 () Int)
(declare-fun lam3n3 () Int)
(declare-fun term_invc1_1 () Int)
(declare-fun non_inc2_L () Bool)
(declare-fun lam4n0 () Int)
(declare-fun lam4n1 () Int)
(declare-fun lam4n2 () Int)
(declare-fun lam4n4 () Int)
(declare-fun lam4n5 () Int)
(declare-fun lam4n6 () Int)
(declare-fun lam4n7 () Int)
(declare-fun lam4n8 () Int)
(declare-fun lam4n9 () Int)
(declare-fun lam4n10 () Int)
(declare-fun lam4n11 () Int)
(declare-fun lam4n12 () Int)
(declare-fun lam4n13 () Int)
(declare-fun lam4n14 () Int)
(declare-fun lam4n15 () Int)
(declare-fun lam4n16 () Int)
(declare-fun lam4n17 () Int)
(declare-fun lam4n18 () Int)
(declare-fun lam4n19 () Int)
(declare-fun lam4n20 () Int)
(declare-fun lam4n22 () Int)
(declare-fun lam4n21 () Int)
(declare-fun lam4n3 () Int)
(declare-fun rfc0 () Int)
(declare-fun disabled2_L () Bool)
(declare-fun bounded2_L () Bool)
(declare-fun lam5n0 () Int)
(declare-fun lam5n1 () Int)
(declare-fun lam5n2 () Int)
(declare-fun lam5n4 () Int)
(declare-fun lam5n5 () Int)
(declare-fun lam5n6 () Int)
(declare-fun lam5n7 () Int)
(declare-fun lam5n8 () Int)
(declare-fun lam5n9 () Int)
(declare-fun lam5n10 () Int)
(declare-fun lam5n11 () Int)
(declare-fun lam5n12 () Int)
(declare-fun lam5n13 () Int)
(declare-fun lam5n14 () Int)
(declare-fun lam5n15 () Int)
(declare-fun lam5n16 () Int)
(declare-fun lam5n17 () Int)
(declare-fun lam5n18 () Int)
(declare-fun lam5n19 () Int)
(declare-fun lam5n20 () Int)
(declare-fun lam5n21 () Int)
(declare-fun lam5n3 () Int)
(declare-fun rfc1 () Int)
(declare-fun dec2_L () Bool)
(declare-fun lam6n0 () Int)
(declare-fun lam6n1 () Int)
(declare-fun lam6n2 () Int)
(declare-fun lam6n4 () Int)
(declare-fun lam6n5 () Int)
(declare-fun lam6n6 () Int)
(declare-fun lam6n7 () Int)
(declare-fun lam6n8 () Int)
(declare-fun lam6n9 () Int)
(declare-fun lam6n10 () Int)
(declare-fun lam6n11 () Int)
(declare-fun lam6n12 () Int)
(declare-fun lam6n13 () Int)
(declare-fun lam6n14 () Int)
(declare-fun lam6n15 () Int)
(declare-fun lam6n16 () Int)
(declare-fun lam6n17 () Int)
(declare-fun lam6n18 () Int)
(declare-fun lam6n19 () Int)
(declare-fun lam6n20 () Int)
(declare-fun lam6n21 () Int)
(declare-fun lam6n3 () Int)
(declare-fun bnd_and_dec2_L () Bool)
(declare-fun GLOBAL_NT_1 () Bool)
(declare-fun global_V0_1 () Int)
(declare-fun TERM_NT_1 () Bool)
(declare-fun term_V0_1 () Int)
(declare-fun ALL_NON_INC_0 () Bool)
(declare-fun DIS_OR_ALL_NON_INC_0 () Bool)
(declare-fun SOME_BND_AND_DEC_0 () Bool)
(declare-fun V0_NIV () Int)
(declare-fun V1_NIV () Int)
(assert ( and ( >= global_invc1_0 ( - 1 ) ) ( <= global_invc1_0 1 ) ( and ( >= lam0n0 0 ) ( >= lam0n1 0 ) ( <= 0 lam0n3 ) ( < lam0n3 1 ) ( and ( = ( + ( * ( - 1 ) lam0n0 ) ( * lam0n1 ( - 99 ) ) ( * lam0n2 200 ) ) ( + global_invc1_1 ( * ( - 1 ) lam0n3 ) ) ) ( = ( + ( * lam0n1 ( - 1 ) ) ( * lam0n2 1 ) ) 0 ) ( = ( * lam0n2 ( - 1 ) ) global_invc1_0 ) ) ) ( and ( >= lam1n0 0 ) ( >= lam1n1 0 ) ( >= lam1n2 0 ) ( <= 0 lam1n4 ) ( < lam1n4 1 ) ( and ( = ( + ( * ( - 1 ) lam1n0 ) ( * lam1n1 1 ) ( * lam1n2 ( - 399 ) ) ( * lam1n3 500 ) ) ( + global_invc1_1 ( * ( - 1 ) lam1n4 ) ) ) ( = ( + ( * lam1n1 ( - 1 ) ) ( * lam1n2 ( - 1 ) ) ( * lam1n3 1 ) ) 0 ) ( = ( * lam1n3 ( - 1 ) ) global_invc1_0 ) ) ) ( and ( >= lam2n0 0 ) ( >= lam2n1 0 ) ( >= lam2n2 0 ) ( >= lam2n4 0 ) ( >= lam2n5 0 ) ( >= lam2n6 0 ) ( >= lam2n7 0 ) ( >= lam2n8 0 ) ( >= lam2n9 0 ) ( >= lam2n10 0 ) ( >= lam2n11 0 ) ( >= lam2n12 0 ) ( >= lam2n13 0 ) ( >= lam2n14 0 ) ( >= lam2n15 0 ) ( >= lam2n16 0 ) ( >= lam2n17 0 ) ( <= 0 lam2n18 ) ( < lam2n18 1 ) ( and ( = ( + ( * ( - 1 ) lam2n0 ) ( * lam2n1 ( - 199 ) ) ( * lam2n2 ( - 599 ) ) ( * lam2n3 700 ) ( * lam2n4 1 ) ( * lam2n5 2 ) ( * lam2n6 28 ) ( * lam2n7 40 ) ( * lam2n8 46 ) ( * lam2n9 47 ) ( * lam2n10 48 ) ( * lam2n11 49 ) ( * lam2n12 50 ) ( * lam2n13 51 ) ( * lam2n14 61 ) ( * lam2n15 69 ) ( * lam2n16 90 ) ( * lam2n17 global_invc1_1 ) ) ( + global_invc1_1 ( * ( - 1 ) lam2n18 ) ) ) ( = ( + ( * lam2n1 ( - 1 ) ) ( * lam2n2 ( - 1 ) ) ( * lam2n3 1 ) ( * lam2n4 ( - 1 ) ) ( * lam2n5 ( - 1 ) ) ( * lam2n6 ( - 1 ) ) ( * lam2n7 ( - 1 ) ) ( * lam2n8 ( - 1 ) ) ( * lam2n9 ( - 1 ) ) ( * lam2n10 ( - 1 ) ) ( * lam2n11 ( - 1 ) ) ( * lam2n12 ( - 1 ) ) ( * lam2n13 ( - 1 ) ) ( * lam2n14 ( - 1 ) ) ( * lam2n15 ( - 1 ) ) ( * lam2n16 ( - 1 ) ) ( * lam2n17 global_invc1_0 ) ) 0 ) ( = ( * lam2n3 ( - 1 ) ) global_invc1_0 ) ) ) ( >= term_invc1_0 ( - 1 ) ) ( <= term_invc1_0 1 ) ( and ( >= lam3n0 0 ) ( >= lam3n1 0 ) ( >= lam3n2 0 ) ( >= lam3n4 0 ) ( >= lam3n5 0 ) ( >= lam3n6 0 ) ( >= lam3n7 0 ) ( >= lam3n8 0 ) ( >= lam3n9 0 ) ( >= lam3n10 0 ) ( >= lam3n11 0 ) ( >= lam3n12 0 ) ( >= lam3n13 0 ) ( >= lam3n14 0 ) ( >= lam3n15 0 ) ( >= lam3n16 0 ) ( >= lam3n17 0 ) ( >= lam3n18 0 ) ( >= lam3n19 0 ) ( <= 0 lam3n20 ) ( < lam3n20 1 ) ( and ( = ( + ( * ( - 1 ) lam3n0 ) ( * lam3n1 ( - 199 ) ) ( * lam3n2 ( - 599 ) ) ( * lam3n3 700 ) ( * lam3n4 1 ) ( * lam3n5 2 ) ( * lam3n6 28 ) ( * lam3n7 40 ) ( * lam3n8 46 ) ( * lam3n9 47 ) ( * lam3n10 48 ) ( * lam3n11 49 ) ( * lam3n12 50 ) ( * lam3n13 51 ) ( * lam3n14 61 ) ( * lam3n15 69 ) ( * lam3n16 90 ) ( * lam3n17 50001 ) ( * lam3n18 90 ) ( * lam3n19 global_invc1_1 ) ) ( + term_invc1_1 ( * ( - 1 ) lam3n20 ) ) ) ( = ( + ( * lam3n1 ( - 1 ) ) ( * lam3n2 ( - 1 ) ) ( * lam3n3 1 ) ( * lam3n4 ( - 1 ) ) ( * lam3n5 ( - 1 ) ) ( * lam3n6 ( - 1 ) ) ( * lam3n7 ( - 1 ) ) ( * lam3n8 ( - 1 ) ) ( * lam3n9 ( - 1 ) ) ( * lam3n10 ( - 1 ) ) ( * lam3n11 ( - 1 ) ) ( * lam3n12 ( - 1 ) ) ( * lam3n13 ( - 1 ) ) ( * lam3n14 ( - 1 ) ) ( * lam3n15 ( - 1 ) ) ( * lam3n16 ( - 1 ) ) ( * lam3n17 ( - 1 ) ) ( * lam3n18 ( - 1 ) ) ( * lam3n19 global_invc1_0 ) ) 0 ) ( = ( * lam3n3 ( - 1 ) ) term_invc1_0 ) ) ) ( = non_inc2_L ( and ( >= lam4n0 0 ) ( >= lam4n1 0 ) ( >= lam4n2 0 ) ( >= lam4n4 0 ) ( >= lam4n5 0 ) ( >= lam4n6 0 ) ( >= lam4n7 0 ) ( >= lam4n8 0 ) ( >= lam4n9 0 ) ( >= lam4n10 0 ) ( >= lam4n11 0 ) ( >= lam4n12 0 ) ( >= lam4n13 0 ) ( >= lam4n14 0 ) ( >= lam4n15 0 ) ( >= lam4n16 0 ) ( >= lam4n17 0 ) ( >= lam4n18 0 ) ( >= lam4n19 0 ) ( >= lam4n20 0 ) ( <= 0 lam4n22 ) ( < lam4n22 1 ) ( <= lam4n21 1 ) ( >= lam4n21 0 ) ( and ( > ( + ( * ( - 1 ) lam4n0 ) ( * lam4n1 ( - 199 ) ) ( * lam4n2 ( - 599 ) ) ( * lam4n3 700 ) ( * lam4n4 1 ) ( * lam4n5 2 ) ( * lam4n6 28 ) ( * lam4n7 40 ) ( * lam4n8 46 ) ( * lam4n9 47 ) ( * lam4n10 48 ) ( * lam4n11 49 ) ( * lam4n12 50 ) ( * lam4n13 51 ) ( * lam4n14 61 ) ( * lam4n15 69 ) ( * lam4n16 90 ) ( * lam4n17 50001 ) ( * lam4n18 90 ) ( * lam4n19 global_invc1_1 ) ( * lam4n20 term_invc1_1 ) ( * lam4n21 ( + 1 ( * ( - 1 ) lam4n22 ) ) ) ) 0 ) ( = ( + ( * lam4n1 ( - 1 ) ) ( * lam4n2 ( - 1 ) ) ( * lam4n3 1 ) ( * lam4n4 ( - 1 ) ) ( * lam4n5 ( - 1 ) ) ( * lam4n6 ( - 1 ) ) ( * lam4n7 ( - 1 ) ) ( * lam4n8 ( - 1 ) ) ( * lam4n9 ( - 1 ) ) ( * lam4n10 ( - 1 ) ) ( * lam4n11 ( - 1 ) ) ( * lam4n12 ( - 1 ) ) ( * lam4n13 ( - 1 ) ) ( * lam4n14 ( - 1 ) ) ( * lam4n15 ( - 1 ) ) ( * lam4n16 ( - 1 ) ) ( * lam4n17 ( - 1 ) ) ( * lam4n18 ( - 1 ) ) ( * lam4n19 global_invc1_0 ) ( * lam4n20 term_invc1_0 ) ( * lam4n21 rfc0 ) ) 0 ) ( = ( + ( * lam4n3 ( - 1 ) ) ( * lam4n21 ( * ( - 1 ) rfc0 ) ) ) 0 ) ) ) ) ( = disabled2_L ( and ( = lam4n21 0 ) non_inc2_L ) ) ( = bounded2_L ( and ( >= lam5n0 0 ) ( >= lam5n1 0 ) ( >= lam5n2 0 ) ( >= lam5n4 0 ) ( >= lam5n5 0 ) ( >= lam5n6 0 ) ( >= lam5n7 0 ) ( >= lam5n8 0 ) ( >= lam5n9 0 ) ( >= lam5n10 0 ) ( >= lam5n11 0 ) ( >= lam5n12 0 ) ( >= lam5n13 0 ) ( >= lam5n14 0 ) ( >= lam5n15 0 ) ( >= lam5n16 0 ) ( >= lam5n17 0 ) ( >= lam5n18 0 ) ( >= lam5n19 0 ) ( >= lam5n20 0 ) ( <= 0 lam5n21 ) ( < lam5n21 1 ) ( and ( = ( + ( * ( - 1 ) lam5n0 ) ( * lam5n1 ( - 199 ) ) ( * lam5n2 ( - 599 ) ) ( * lam5n3 700 ) ( * lam5n4 1 ) ( * lam5n5 2 ) ( * lam5n6 28 ) ( * lam5n7 40 ) ( * lam5n8 46 ) ( * lam5n9 47 ) ( * lam5n10 48 ) ( * lam5n11 49 ) ( * lam5n12 50 ) ( * lam5n13 51 ) ( * lam5n14 61 ) ( * lam5n15 69 ) ( * lam5n16 90 ) ( * lam5n17 50001 ) ( * lam5n18 90 ) ( * lam5n19 global_invc1_1 ) ( * lam5n20 term_invc1_1 ) ) ( + ( * ( - 1 ) rfc1 ) ( * ( - 1 ) lam5n21 ) ) ) ( = ( + ( * lam5n1 ( - 1 ) ) ( * lam5n2 ( - 1 ) ) ( * lam5n3 1 ) ( * lam5n4 ( - 1 ) ) ( * lam5n5 ( - 1 ) ) ( * lam5n6 ( - 1 ) ) ( * lam5n7 ( - 1 ) ) ( * lam5n8 ( - 1 ) ) ( * lam5n9 ( - 1 ) ) ( * lam5n10 ( - 1 ) ) ( * lam5n11 ( - 1 ) ) ( * lam5n12 ( - 1 ) ) ( * lam5n13 ( - 1 ) ) ( * lam5n14 ( - 1 ) ) ( * lam5n15 ( - 1 ) ) ( * lam5n16 ( - 1 ) ) ( * lam5n17 ( - 1 ) ) ( * lam5n18 ( - 1 ) ) ( * lam5n19 global_invc1_0 ) ( * lam5n20 term_invc1_0 ) ) ( * ( - 1 ) rfc0 ) ) ( = ( * lam5n3 ( - 1 ) ) 0 ) ) ) ) ( = dec2_L ( and ( >= lam6n0 0 ) ( >= lam6n1 0 ) ( >= lam6n2 0 ) ( >= lam6n4 0 ) ( >= lam6n5 0 ) ( >= lam6n6 0 ) ( >= lam6n7 0 ) ( >= lam6n8 0 ) ( >= lam6n9 0 ) ( >= lam6n10 0 ) ( >= lam6n11 0 ) ( >= lam6n12 0 ) ( >= lam6n13 0 ) ( >= lam6n14 0 ) ( >= lam6n15 0 ) ( >= lam6n16 0 ) ( >= lam6n17 0 ) ( >= lam6n18 0 ) ( >= lam6n19 0 ) ( >= lam6n20 0 ) ( <= 0 lam6n21 ) ( < lam6n21 1 ) ( and ( = ( + ( * ( - 1 ) lam6n0 ) ( * lam6n1 ( - 199 ) ) ( * lam6n2 ( - 599 ) ) ( * lam6n3 700 ) ( * lam6n4 1 ) ( * lam6n5 2 ) ( * lam6n6 28 ) ( * lam6n7 40 ) ( * lam6n8 46 ) ( * lam6n9 47 ) ( * lam6n10 48 ) ( * lam6n11 49 ) ( * lam6n12 50 ) ( * lam6n13 51 ) ( * lam6n14 61 ) ( * lam6n15 69 ) ( * lam6n16 90 ) ( * lam6n17 50001 ) ( * lam6n18 90 ) ( * lam6n19 global_invc1_1 ) ( * lam6n20 term_invc1_1 ) ) ( + 1 ( * ( - 1 ) lam6n21 ) ) ) ( = ( + ( * lam6n1 ( - 1 ) ) ( * lam6n2 ( - 1 ) ) ( * lam6n3 1 ) ( * lam6n4 ( - 1 ) ) ( * lam6n5 ( - 1 ) ) ( * lam6n6 ( - 1 ) ) ( * lam6n7 ( - 1 ) ) ( * lam6n8 ( - 1 ) ) ( * lam6n9 ( - 1 ) ) ( * lam6n10 ( - 1 ) ) ( * lam6n11 ( - 1 ) ) ( * lam6n12 ( - 1 ) ) ( * lam6n13 ( - 1 ) ) ( * lam6n14 ( - 1 ) ) ( * lam6n15 ( - 1 ) ) ( * lam6n16 ( - 1 ) ) ( * lam6n17 ( - 1 ) ) ( * lam6n18 ( - 1 ) ) ( * lam6n19 global_invc1_0 ) ( * lam6n20 term_invc1_0 ) ) ( * ( - 1 ) rfc0 ) ) ( = ( * lam6n3 ( - 1 ) ) rfc0 ) ) ) ) ( = bnd_and_dec2_L ( and bounded2_L dec2_L ) ) ( = GLOBAL_NT_1 ( not ( = global_invc1_0 0 ) ) ) ( or ( and ( not ( <= ( + global_invc1_1 ( * global_invc1_0 global_V0_1 ) ) 0 ) ) ( <= ( + ( * ( - 1 ) global_V0_1 ) 1 ) 0 ) ( <= ( + ( * ( - 1 ) global_V0_1 ) 2 ) 0 ) ( <= ( + ( * ( - 1 ) global_V0_1 ) 28 ) 0 ) ( <= ( + ( * ( - 1 ) global_V0_1 ) 40 ) 0 ) ( <= ( + ( * ( - 1 ) global_V0_1 ) 46 ) 0 ) ( <= ( + ( * ( - 1 ) global_V0_1 ) 47 ) 0 ) ( <= ( + ( * ( - 1 ) global_V0_1 ) 48 ) 0 ) ( <= ( + ( * ( - 1 ) global_V0_1 ) 49 ) 0 ) ( <= ( + ( * ( - 1 ) global_V0_1 ) 50 ) 0 ) ( <= ( + ( * ( - 1 ) global_V0_1 ) 51 ) 0 ) ( <= ( + ( * ( - 1 ) global_V0_1 ) 61 ) 0 ) ( <= ( + ( * ( - 1 ) global_V0_1 ) 69 ) 0 ) ( <= ( + ( * ( - 1 ) global_V0_1 ) 90 ) 0 ) ) ( = global_invc1_0 0 ) ) ( = TERM_NT_1 ( not ( = term_invc1_0 0 ) ) ) ( or ( and ( not ( <= ( + term_invc1_1 ( * term_invc1_0 term_V0_1 ) ) 0 ) ) ( <= ( + ( * ( - 1 ) term_V0_1 ) 1 ) 0 ) ( <= ( + ( * ( - 1 ) term_V0_1 ) 2 ) 0 ) ( <= ( + ( * ( - 1 ) term_V0_1 ) 28 ) 0 ) ( <= ( + ( * ( - 1 ) term_V0_1 ) 40 ) 0 ) ( <= ( + ( * ( - 1 ) term_V0_1 ) 90 ) 0 ) ( <= ( + ( * ( - 1 ) term_V0_1 ) 46 ) 0 ) ( <= ( + ( * ( - 1 ) term_V0_1 ) 47 ) 0 ) ( <= ( + ( * ( - 1 ) term_V0_1 ) 48 ) 0 ) ( <= ( + ( * ( - 1 ) term_V0_1 ) 49 ) 0 ) ( <= ( + ( * ( - 1 ) term_V0_1 ) 50 ) 0 ) ( <= ( + ( * ( - 1 ) term_V0_1 ) 51 ) 0 ) ( <= ( + ( * ( - 1 ) term_V0_1 ) 61 ) 0 ) ( <= ( + ( * ( - 1 ) term_V0_1 ) 69 ) 0 ) ( <= ( + ( * ( - 1 ) term_V0_1 ) 90 ) 0 ) ) ( = term_invc1_0 0 ) ) ( = ALL_NON_INC_0 non_inc2_L ) ( = DIS_OR_ALL_NON_INC_0 ( or disabled2_L ALL_NON_INC_0 ) ) ( = SOME_BND_AND_DEC_0 bnd_and_dec2_L ) ( or ( not ALL_NON_INC_0 ) ( and ( >= rfc0 ( - 2 ) ) ( <= rfc0 2 ) ( not ( = rfc0 0 ) ) ( >= rfc1 0 ) ( or SOME_BND_AND_DEC_0 ( or ( and ( <= ( + ( * rfc0 V0_NIV ) 1 ) ( * rfc0 V1_NIV ) ) ( >= ( * ( - 1 ) V0_NIV ) ( * ( - 1 ) V1_NIV ) ) ) ( = rfc0 0 ) ) ) ) ) ( or GLOBAL_NT_1 TERM_NT_1 ALL_NON_INC_0 ) ))
(check-sat)
(exit)
